Optimal - objective value 4.00000000
      2 x_0_2                       1                     0.8
     17 x_1_1                       1                       0
     33 x_2_1                       1                       0
     51 x_3_3                       1         -0.00999999999999984
     65 x_4_1                       1                       0
     81 x_5_1                       1                       0
     99 x_6_3                       1         0.299999999999999
    115 x_7_3                       1         -0.0200000000000005
    131 x_8_3                       1                       0
    144 x_9_0                       1                    0.05
    161 x_10_1                      1                       0
    176 x_11_0                      1                       0
    193 x_12_1                      1         -0.0399999999999995
    209 x_13_1                      1                       0
    224 x_14_0                      1         0.139999999999999
    240 x_15_0                      1                   -0.08
    256 y_0                         1                       0
    257 y_1                         1         0.0699999999999995
    258 y_2                         1                       0
    259 y_3                         1                       0
